10
2147483647 6 74 64 82 30 64 58 76 50 
6 2147483647 21 8 89 44 23 6 4 11 
74 21 2147483647 31 78 92 31 68 86 42 
64 8 31 2147483647 1 18 33 50 70 30 
82 89 78 1 2147483647 27 63 64 10 54 
30 44 92 18 27 2147483647 58 35 66 13 
64 23 31 33 63 58 2147483647 90 40 5 
58 6 68 50 64 35 90 2147483647 75 2 
76 4 86 70 10 66 40 75 2147483647 31 
50 11 42 30 54 13 5 2 31 2147483647 
